NAME : block_49.377050.tour
COMMENT : Length = 377050
COMMENT : Found by LKH-3 [Keld Helsgaun] Mon Feb  2 23:17:45 2026
TYPE : TOUR
DIMENSION : 94
TOUR_SECTION
21
13
22
30
31
40
50
51
41
32
4
3
7
14
23
33
42
52
62
61
60
70
69
80
79
88
89
81
71
72
2
94
1
53
43
34
44
54
63
73
64
55
45
35
24
25
36
46
56
65
74
82
83
75
66
57
47
37
26
15
8
16
27
38
48
58
67
76
84
90
91
92
93
87
78
86
85
77
68
59
49
39
28
17
9
10
18
29
19
11
5
6
12
20
-1
EOF
